(declare-fun C1_VM1 () Int)
(declare-fun C1_VM2 () Int)
(declare-fun C1_VM3 () Int)
(declare-fun C1_VM4 () Int)
(declare-fun C1_VM5 () Int)
(declare-fun C1_VM6 () Int)
(declare-fun C1_VM7 () Int)
(declare-fun C1_VM8 () Int)
(declare-fun C1_VM9 () Int)
(declare-fun C1_VM10 () Int)
(declare-fun C1_VM11 () Int)
(declare-fun C1_VM12 () Int)
(declare-fun C1_VM13 () Int)
(declare-fun C2_VM1 () Int)
(declare-fun C2_VM2 () Int)
(declare-fun C2_VM3 () Int)
(declare-fun C2_VM4 () Int)
(declare-fun C2_VM5 () Int)
(declare-fun C2_VM6 () Int)
(declare-fun C2_VM7 () Int)
(declare-fun C2_VM8 () Int)
(declare-fun C2_VM9 () Int)
(declare-fun C2_VM10 () Int)
(declare-fun C2_VM11 () Int)
(declare-fun C2_VM12 () Int)
(declare-fun C2_VM13 () Int)
(declare-fun C3_VM1 () Int)
(declare-fun C3_VM2 () Int)
(declare-fun C3_VM3 () Int)
(declare-fun C3_VM4 () Int)
(declare-fun C3_VM5 () Int)
(declare-fun C3_VM6 () Int)
(declare-fun C3_VM7 () Int)
(declare-fun C3_VM8 () Int)
(declare-fun C3_VM9 () Int)
(declare-fun C3_VM10 () Int)
(declare-fun C3_VM11 () Int)
(declare-fun C3_VM12 () Int)
(declare-fun C3_VM13 () Int)
(declare-fun C4_VM1 () Int)
(declare-fun C4_VM2 () Int)
(declare-fun C4_VM3 () Int)
(declare-fun C4_VM4 () Int)
(declare-fun C4_VM5 () Int)
(declare-fun C4_VM6 () Int)
(declare-fun C4_VM7 () Int)
(declare-fun C4_VM8 () Int)
(declare-fun C4_VM9 () Int)
(declare-fun C4_VM10 () Int)
(declare-fun C4_VM11 () Int)
(declare-fun C4_VM12 () Int)
(declare-fun C4_VM13 () Int)
(declare-fun C5_VM1 () Int)
(declare-fun C5_VM2 () Int)
(declare-fun C5_VM3 () Int)
(declare-fun C5_VM4 () Int)
(declare-fun C5_VM5 () Int)
(declare-fun C5_VM6 () Int)
(declare-fun C5_VM7 () Int)
(declare-fun C5_VM8 () Int)
(declare-fun C5_VM9 () Int)
(declare-fun C5_VM10 () Int)
(declare-fun C5_VM11 () Int)
(declare-fun C5_VM12 () Int)
(declare-fun C5_VM13 () Int)
(declare-fun VM1Type () Int)
(declare-fun VM2Type () Int)
(declare-fun VM3Type () Int)
(declare-fun VM4Type () Int)
(declare-fun VM5Type () Int)
(declare-fun VM6Type () Int)
(declare-fun VM7Type () Int)
(declare-fun VM8Type () Int)
(declare-fun VM9Type () Int)
(declare-fun VM10Type () Int)
(declare-fun VM11Type () Int)
(declare-fun VM12Type () Int)
(declare-fun VM13Type () Int)
(declare-fun PriceProv1 () Int)
(declare-fun PriceProv2 () Int)
(declare-fun PriceProv3 () Int)
(declare-fun PriceProv4 () Int)
(declare-fun PriceProv5 () Int)
(declare-fun PriceProv6 () Int)
(declare-fun PriceProv7 () Int)
(declare-fun PriceProv8 () Int)
(declare-fun PriceProv9 () Int)
(declare-fun PriceProv10 () Int)
(declare-fun PriceProv11 () Int)
(declare-fun PriceProv12 () Int)
(declare-fun PriceProv13 () Int)
(declare-fun StorageProv1 () Int)
(declare-fun MemProv1 () Int)
(declare-fun ProcProv1 () Int)
(declare-fun StorageProv2 () Int)
(declare-fun MemProv2 () Int)
(declare-fun ProcProv2 () Int)
(declare-fun StorageProv3 () Int)
(declare-fun MemProv3 () Int)
(declare-fun ProcProv3 () Int)
(declare-fun StorageProv4 () Int)
(declare-fun MemProv4 () Int)
(declare-fun ProcProv4 () Int)
(declare-fun StorageProv5 () Int)
(declare-fun MemProv5 () Int)
(declare-fun ProcProv5 () Int)
(declare-fun StorageProv6 () Int)
(declare-fun MemProv6 () Int)
(declare-fun ProcProv6 () Int)
(declare-fun StorageProv7 () Int)
(declare-fun MemProv7 () Int)
(declare-fun ProcProv7 () Int)
(declare-fun StorageProv8 () Int)
(declare-fun MemProv8 () Int)
(declare-fun ProcProv8 () Int)
(declare-fun StorageProv9 () Int)
(declare-fun MemProv9 () Int)
(declare-fun ProcProv9 () Int)
(declare-fun StorageProv10 () Int)
(declare-fun MemProv10 () Int)
(declare-fun ProcProv10 () Int)
(declare-fun StorageProv11 () Int)
(declare-fun MemProv11 () Int)
(declare-fun ProcProv11 () Int)
(declare-fun StorageProv12 () Int)
(declare-fun MemProv12 () Int)
(declare-fun ProcProv12 () Int)
(declare-fun StorageProv13 () Int)
(declare-fun MemProv13 () Int)
(declare-fun ProcProv13 () Int)
(assert (or (= C1_VM1 0) (= C1_VM1 1)))
(assert (or (= C1_VM2 0) (= C1_VM2 1)))
(assert (or (= C1_VM3 0) (= C1_VM3 1)))
(assert (or (= C1_VM4 0) (= C1_VM4 1)))
(assert (or (= C1_VM5 0) (= C1_VM5 1)))
(assert (or (= C1_VM6 0) (= C1_VM6 1)))
(assert (or (= C1_VM7 0) (= C1_VM7 1)))
(assert (or (= C1_VM8 0) (= C1_VM8 1)))
(assert (or (= C1_VM9 0) (= C1_VM9 1)))
(assert (or (= C1_VM10 0) (= C1_VM10 1)))
(assert (or (= C1_VM11 0) (= C1_VM11 1)))
(assert (or (= C1_VM12 0) (= C1_VM12 1)))
(assert (or (= C1_VM13 0) (= C1_VM13 1)))
(assert (or (= C2_VM1 0) (= C2_VM1 1)))
(assert (or (= C2_VM2 0) (= C2_VM2 1)))
(assert (or (= C2_VM3 0) (= C2_VM3 1)))
(assert (or (= C2_VM4 0) (= C2_VM4 1)))
(assert (or (= C2_VM5 0) (= C2_VM5 1)))
(assert (or (= C2_VM6 0) (= C2_VM6 1)))
(assert (or (= C2_VM7 0) (= C2_VM7 1)))
(assert (or (= C2_VM8 0) (= C2_VM8 1)))
(assert (or (= C2_VM9 0) (= C2_VM9 1)))
(assert (or (= C2_VM10 0) (= C2_VM10 1)))
(assert (or (= C2_VM11 0) (= C2_VM11 1)))
(assert (or (= C2_VM12 0) (= C2_VM12 1)))
(assert (or (= C2_VM13 0) (= C2_VM13 1)))
(assert (or (= C3_VM1 0) (= C3_VM1 1)))
(assert (or (= C3_VM2 0) (= C3_VM2 1)))
(assert (or (= C3_VM3 0) (= C3_VM3 1)))
(assert (or (= C3_VM4 0) (= C3_VM4 1)))
(assert (or (= C3_VM5 0) (= C3_VM5 1)))
(assert (or (= C3_VM6 0) (= C3_VM6 1)))
(assert (or (= C3_VM7 0) (= C3_VM7 1)))
(assert (or (= C3_VM8 0) (= C3_VM8 1)))
(assert (or (= C3_VM9 0) (= C3_VM9 1)))
(assert (or (= C3_VM10 0) (= C3_VM10 1)))
(assert (or (= C3_VM11 0) (= C3_VM11 1)))
(assert (or (= C3_VM12 0) (= C3_VM12 1)))
(assert (or (= C3_VM13 0) (= C3_VM13 1)))
(assert (or (= C4_VM1 0) (= C4_VM1 1)))
(assert (or (= C4_VM2 0) (= C4_VM2 1)))
(assert (or (= C4_VM3 0) (= C4_VM3 1)))
(assert (or (= C4_VM4 0) (= C4_VM4 1)))
(assert (or (= C4_VM5 0) (= C4_VM5 1)))
(assert (or (= C4_VM6 0) (= C4_VM6 1)))
(assert (or (= C4_VM7 0) (= C4_VM7 1)))
(assert (or (= C4_VM8 0) (= C4_VM8 1)))
(assert (or (= C4_VM9 0) (= C4_VM9 1)))
(assert (or (= C4_VM10 0) (= C4_VM10 1)))
(assert (or (= C4_VM11 0) (= C4_VM11 1)))
(assert (or (= C4_VM12 0) (= C4_VM12 1)))
(assert (or (= C4_VM13 0) (= C4_VM13 1)))
(assert (or (= C5_VM1 0) (= C5_VM1 1)))
(assert (or (= C5_VM2 0) (= C5_VM2 1)))
(assert (or (= C5_VM3 0) (= C5_VM3 1)))
(assert (or (= C5_VM4 0) (= C5_VM4 1)))
(assert (or (= C5_VM5 0) (= C5_VM5 1)))
(assert (or (= C5_VM6 0) (= C5_VM6 1)))
(assert (or (= C5_VM7 0) (= C5_VM7 1)))
(assert (or (= C5_VM8 0) (= C5_VM8 1)))
(assert (or (= C5_VM9 0) (= C5_VM9 1)))
(assert (or (= C5_VM10 0) (= C5_VM10 1)))
(assert (or (= C5_VM11 0) (= C5_VM11 1)))
(assert (or (= C5_VM12 0) (= C5_VM12 1)))
(assert (or (= C5_VM13 0) (= C5_VM13 1)))
(assert (or (= VM1Type 1) (= VM1Type 2) (= VM1Type 3) (= VM1Type 4)))
(assert (or (= VM2Type 1) (= VM2Type 2) (= VM2Type 3) (= VM2Type 4)))
(assert (or (= VM3Type 1) (= VM3Type 2) (= VM3Type 3) (= VM3Type 4)))
(assert (or (= VM4Type 1) (= VM4Type 2) (= VM4Type 3) (= VM4Type 4)))
(assert (or (= VM5Type 1) (= VM5Type 2) (= VM5Type 3) (= VM5Type 4)))
(assert (or (= VM6Type 1) (= VM6Type 2) (= VM6Type 3) (= VM6Type 4)))
(assert (or (= VM7Type 1) (= VM7Type 2) (= VM7Type 3) (= VM7Type 4)))
(assert (or (= VM8Type 1) (= VM8Type 2) (= VM8Type 3) (= VM8Type 4)))
(assert (or (= VM9Type 1) (= VM9Type 2) (= VM9Type 3) (= VM9Type 4)))
(assert (or (= VM10Type 1) (= VM10Type 2) (= VM10Type 3) (= VM10Type 4)))
(assert (or (= VM11Type 1) (= VM11Type 2) (= VM11Type 3) (= VM11Type 4)))
(assert (or (= VM12Type 1) (= VM12Type 2) (= VM12Type 3) (= VM12Type 4)))
(assert (or (= VM13Type 1) (= VM13Type 2) (= VM13Type 3) (= VM13Type 4)))
(assert (=> (= (+ 0 C1_VM1 C2_VM1 C3_VM1 C4_VM1 C5_VM1) 0) (= PriceProv1 0)))
(assert (=> (= (+ 0 C1_VM2 C2_VM2 C3_VM2 C4_VM2 C5_VM2) 0) (= PriceProv2 0)))
(assert (=> (= (+ 0 C1_VM3 C2_VM3 C3_VM3 C4_VM3 C5_VM3) 0) (= PriceProv3 0)))
(assert (=> (= (+ 0 C1_VM4 C2_VM4 C3_VM4 C4_VM4 C5_VM4) 0) (= PriceProv4 0)))
(assert (=> (= (+ 0 C1_VM5 C2_VM5 C3_VM5 C4_VM5 C5_VM5) 0) (= PriceProv5 0)))
(assert (=> (= (+ 0 C1_VM6 C2_VM6 C3_VM6 C4_VM6 C5_VM6) 0) (= PriceProv6 0)))
(assert (=> (= (+ 0 C1_VM7 C2_VM7 C3_VM7 C4_VM7 C5_VM7) 0) (= PriceProv7 0)))
(assert (=> (= (+ 0 C1_VM8 C2_VM8 C3_VM8 C4_VM8 C5_VM8) 0) (= PriceProv8 0)))
(assert (=> (= (+ 0 C1_VM9 C2_VM9 C3_VM9 C4_VM9 C5_VM9) 0) (= PriceProv9 0)))
(assert (=> (= (+ 0 C1_VM10 C2_VM10 C3_VM10 C4_VM10 C5_VM10) 0) (= PriceProv10 0)))
(assert (=> (= (+ 0 C1_VM11 C2_VM11 C3_VM11 C4_VM11 C5_VM11) 0) (= PriceProv11 0)))
(assert (=> (= (+ 0 C1_VM12 C2_VM12 C3_VM12 C4_VM12 C5_VM12) 0) (= PriceProv12 0)))
(assert (=> (= (+ 0 C1_VM13 C2_VM13 C3_VM13 C4_VM13 C5_VM13) 0) (= PriceProv13 0)))
(assert (=> (and (>= (+ 0 C1_VM1 C2_VM1 C3_VM1 C4_VM1 C5_VM1) 1) (= VM1Type 1))
    (and (= PriceProv1 8403)
         (= ProcProv1 64)
         (= MemProv1 976000)
         (= StorageProv1 1000))))
(assert (=> (and (>= (+ 0 C1_VM2 C2_VM2 C3_VM2 C4_VM2 C5_VM2) 1) (= VM2Type 1))
    (and (= PriceProv2 8403)
         (= ProcProv2 64)
         (= MemProv2 976000)
         (= StorageProv2 1000))))
(assert (=> (and (>= (+ 0 C1_VM3 C2_VM3 C3_VM3 C4_VM3 C5_VM3) 1) (= VM3Type 1))
    (and (= PriceProv3 8403)
         (= ProcProv3 64)
         (= MemProv3 976000)
         (= StorageProv3 1000))))
(assert (=> (and (>= (+ 0 C1_VM4 C2_VM4 C3_VM4 C4_VM4 C5_VM4) 1) (= VM4Type 1))
    (and (= PriceProv4 8403)
         (= ProcProv4 64)
         (= MemProv4 976000)
         (= StorageProv4 1000))))
(assert (=> (and (>= (+ 0 C1_VM5 C2_VM5 C3_VM5 C4_VM5 C5_VM5) 1) (= VM5Type 1))
    (and (= PriceProv5 8403)
         (= ProcProv5 64)
         (= MemProv5 976000)
         (= StorageProv5 1000))))
(assert (=> (and (>= (+ 0 C1_VM6 C2_VM6 C3_VM6 C4_VM6 C5_VM6) 1) (= VM6Type 1))
    (and (= PriceProv6 8403)
         (= ProcProv6 64)
         (= MemProv6 976000)
         (= StorageProv6 1000))))
(assert (=> (and (>= (+ 0 C1_VM7 C2_VM7 C3_VM7 C4_VM7 C5_VM7) 1) (= VM7Type 1))
    (and (= PriceProv7 8403)
         (= ProcProv7 64)
         (= MemProv7 976000)
         (= StorageProv7 1000))))
(assert (=> (and (>= (+ 0 C1_VM8 C2_VM8 C3_VM8 C4_VM8 C5_VM8) 1) (= VM8Type 1))
    (and (= PriceProv8 8403)
         (= ProcProv8 64)
         (= MemProv8 976000)
         (= StorageProv8 1000))))
(assert (=> (and (>= (+ 0 C1_VM9 C2_VM9 C3_VM9 C4_VM9 C5_VM9) 1) (= VM9Type 1))
    (and (= PriceProv9 8403)
         (= ProcProv9 64)
         (= MemProv9 976000)
         (= StorageProv9 1000))))
(assert (=> (and (>= (+ 0 C1_VM10 C2_VM10 C3_VM10 C4_VM10 C5_VM10) 1) (= VM10Type 1))
    (and (= PriceProv10 8403)
         (= ProcProv10 64)
         (= MemProv10 976000)
         (= StorageProv10 1000))))
(assert (=> (and (>= (+ 0 C1_VM11 C2_VM11 C3_VM11 C4_VM11 C5_VM11) 1) (= VM11Type 1))
    (and (= PriceProv11 8403)
         (= ProcProv11 64)
         (= MemProv11 976000)
         (= StorageProv11 1000))))
(assert (=> (and (>= (+ 0 C1_VM12 C2_VM12 C3_VM12 C4_VM12 C5_VM12) 1) (= VM12Type 1))
    (and (= PriceProv12 8403)
         (= ProcProv12 64)
         (= MemProv12 976000)
         (= StorageProv12 1000))))
(assert (=> (and (>= (+ 0 C1_VM13 C2_VM13 C3_VM13 C4_VM13 C5_VM13) 1) (= VM13Type 1))
    (and (= PriceProv13 8403)
         (= ProcProv13 64)
         (= MemProv13 976000)
         (= StorageProv13 1000))))
(assert (=> (and (>= (+ 0 C1_VM1 C2_VM1 C3_VM1 C4_VM1 C5_VM1) 1) (= VM1Type 2))
    (and (= PriceProv1 9152)
         (= ProcProv1 64)
         (= MemProv1 488000)
         (= StorageProv1 8000))))
(assert (=> (and (>= (+ 0 C1_VM2 C2_VM2 C3_VM2 C4_VM2 C5_VM2) 1) (= VM2Type 2))
    (and (= PriceProv2 9152)
         (= ProcProv2 64)
         (= MemProv2 488000)
         (= StorageProv2 8000))))
(assert (=> (and (>= (+ 0 C1_VM3 C2_VM3 C3_VM3 C4_VM3 C5_VM3) 1) (= VM3Type 2))
    (and (= PriceProv3 9152)
         (= ProcProv3 64)
         (= MemProv3 488000)
         (= StorageProv3 8000))))
(assert (=> (and (>= (+ 0 C1_VM4 C2_VM4 C3_VM4 C4_VM4 C5_VM4) 1) (= VM4Type 2))
    (and (= PriceProv4 9152)
         (= ProcProv4 64)
         (= MemProv4 488000)
         (= StorageProv4 8000))))
(assert (=> (and (>= (+ 0 C1_VM5 C2_VM5 C3_VM5 C4_VM5 C5_VM5) 1) (= VM5Type 2))
    (and (= PriceProv5 9152)
         (= ProcProv5 64)
         (= MemProv5 488000)
         (= StorageProv5 8000))))
(assert (=> (and (>= (+ 0 C1_VM6 C2_VM6 C3_VM6 C4_VM6 C5_VM6) 1) (= VM6Type 2))
    (and (= PriceProv6 9152)
         (= ProcProv6 64)
         (= MemProv6 488000)
         (= StorageProv6 8000))))
(assert (=> (and (>= (+ 0 C1_VM7 C2_VM7 C3_VM7 C4_VM7 C5_VM7) 1) (= VM7Type 2))
    (and (= PriceProv7 9152)
         (= ProcProv7 64)
         (= MemProv7 488000)
         (= StorageProv7 8000))))
(assert (=> (and (>= (+ 0 C1_VM8 C2_VM8 C3_VM8 C4_VM8 C5_VM8) 1) (= VM8Type 2))
    (and (= PriceProv8 9152)
         (= ProcProv8 64)
         (= MemProv8 488000)
         (= StorageProv8 8000))))
(assert (=> (and (>= (+ 0 C1_VM9 C2_VM9 C3_VM9 C4_VM9 C5_VM9) 1) (= VM9Type 2))
    (and (= PriceProv9 9152)
         (= ProcProv9 64)
         (= MemProv9 488000)
         (= StorageProv9 8000))))
(assert (=> (and (>= (+ 0 C1_VM10 C2_VM10 C3_VM10 C4_VM10 C5_VM10) 1) (= VM10Type 2))
    (and (= PriceProv10 9152)
         (= ProcProv10 64)
         (= MemProv10 488000)
         (= StorageProv10 8000))))
(assert (=> (and (>= (+ 0 C1_VM11 C2_VM11 C3_VM11 C4_VM11 C5_VM11) 1) (= VM11Type 2))
    (and (= PriceProv11 9152)
         (= ProcProv11 64)
         (= MemProv11 488000)
         (= StorageProv11 8000))))
(assert (=> (and (>= (+ 0 C1_VM12 C2_VM12 C3_VM12 C4_VM12 C5_VM12) 1) (= VM12Type 2))
    (and (= PriceProv12 9152)
         (= ProcProv12 64)
         (= MemProv12 488000)
         (= StorageProv12 8000))))
(assert (=> (and (>= (+ 0 C1_VM13 C2_VM13 C3_VM13 C4_VM13 C5_VM13) 1) (= VM13Type 2))
    (and (= PriceProv13 9152)
         (= ProcProv13 64)
         (= MemProv13 488000)
         (= StorageProv13 8000))))
(assert (=> (and (>= (+ 0 C1_VM1 C2_VM1 C3_VM1 C4_VM1 C5_VM1) 1) (= VM1Type 3))
    (and (= PriceProv1 2808)
         (= ProcProv1 32)
         (= MemProv1 60000)
         (= StorageProv1 2000))))
(assert (=> (and (>= (+ 0 C1_VM2 C2_VM2 C3_VM2 C4_VM2 C5_VM2) 1) (= VM2Type 3))
    (and (= PriceProv2 2808)
         (= ProcProv2 32)
         (= MemProv2 60000)
         (= StorageProv2 2000))))
(assert (=> (and (>= (+ 0 C1_VM3 C2_VM3 C3_VM3 C4_VM3 C5_VM3) 1) (= VM3Type 3))
    (and (= PriceProv3 2808)
         (= ProcProv3 32)
         (= MemProv3 60000)
         (= StorageProv3 2000))))
(assert (=> (and (>= (+ 0 C1_VM4 C2_VM4 C3_VM4 C4_VM4 C5_VM4) 1) (= VM4Type 3))
    (and (= PriceProv4 2808)
         (= ProcProv4 32)
         (= MemProv4 60000)
         (= StorageProv4 2000))))
(assert (=> (and (>= (+ 0 C1_VM5 C2_VM5 C3_VM5 C4_VM5 C5_VM5) 1) (= VM5Type 3))
    (and (= PriceProv5 2808)
         (= ProcProv5 32)
         (= MemProv5 60000)
         (= StorageProv5 2000))))
(assert (=> (and (>= (+ 0 C1_VM6 C2_VM6 C3_VM6 C4_VM6 C5_VM6) 1) (= VM6Type 3))
    (and (= PriceProv6 2808)
         (= ProcProv6 32)
         (= MemProv6 60000)
         (= StorageProv6 2000))))
(assert (=> (and (>= (+ 0 C1_VM7 C2_VM7 C3_VM7 C4_VM7 C5_VM7) 1) (= VM7Type 3))
    (and (= PriceProv7 2808)
         (= ProcProv7 32)
         (= MemProv7 60000)
         (= StorageProv7 2000))))
(assert (=> (and (>= (+ 0 C1_VM8 C2_VM8 C3_VM8 C4_VM8 C5_VM8) 1) (= VM8Type 3))
    (and (= PriceProv8 2808)
         (= ProcProv8 32)
         (= MemProv8 60000)
         (= StorageProv8 2000))))
(assert (=> (and (>= (+ 0 C1_VM9 C2_VM9 C3_VM9 C4_VM9 C5_VM9) 1) (= VM9Type 3))
    (and (= PriceProv9 2808)
         (= ProcProv9 32)
         (= MemProv9 60000)
         (= StorageProv9 2000))))
(assert (=> (and (>= (+ 0 C1_VM10 C2_VM10 C3_VM10 C4_VM10 C5_VM10) 1) (= VM10Type 3))
    (and (= PriceProv10 2808)
         (= ProcProv10 32)
         (= MemProv10 60000)
         (= StorageProv10 2000))))
(assert (=> (and (>= (+ 0 C1_VM11 C2_VM11 C3_VM11 C4_VM11 C5_VM11) 1) (= VM11Type 3))
    (and (= PriceProv11 2808)
         (= ProcProv11 32)
         (= MemProv11 60000)
         (= StorageProv11 2000))))
(assert (=> (and (>= (+ 0 C1_VM12 C2_VM12 C3_VM12 C4_VM12 C5_VM12) 1) (= VM12Type 3))
    (and (= PriceProv12 2808)
         (= ProcProv12 32)
         (= MemProv12 60000)
         (= StorageProv12 2000))))
(assert (=> (and (>= (+ 0 C1_VM13 C2_VM13 C3_VM13 C4_VM13 C5_VM13) 1) (= VM13Type 3))
    (and (= PriceProv13 2808)
         (= ProcProv13 32)
         (= MemProv13 60000)
         (= StorageProv13 2000))))
(assert (=> (and (>= (+ 0 C1_VM1 C2_VM1 C3_VM1 C4_VM1 C5_VM1) 1) (= VM1Type 4))
    (and (= PriceProv1 1600)
         (= ProcProv1 16)
         (= MemProv1 122000)
         (= StorageProv1 1000))))
(assert (=> (and (>= (+ 0 C1_VM2 C2_VM2 C3_VM2 C4_VM2 C5_VM2) 1) (= VM2Type 4))
    (and (= PriceProv2 1600)
         (= ProcProv2 16)
         (= MemProv2 122000)
         (= StorageProv2 1000))))
(assert (=> (and (>= (+ 0 C1_VM3 C2_VM3 C3_VM3 C4_VM3 C5_VM3) 1) (= VM3Type 4))
    (and (= PriceProv3 1600)
         (= ProcProv3 16)
         (= MemProv3 122000)
         (= StorageProv3 1000))))
(assert (=> (and (>= (+ 0 C1_VM4 C2_VM4 C3_VM4 C4_VM4 C5_VM4) 1) (= VM4Type 4))
    (and (= PriceProv4 1600)
         (= ProcProv4 16)
         (= MemProv4 122000)
         (= StorageProv4 1000))))
(assert (=> (and (>= (+ 0 C1_VM5 C2_VM5 C3_VM5 C4_VM5 C5_VM5) 1) (= VM5Type 4))
    (and (= PriceProv5 1600)
         (= ProcProv5 16)
         (= MemProv5 122000)
         (= StorageProv5 1000))))
(assert (=> (and (>= (+ 0 C1_VM6 C2_VM6 C3_VM6 C4_VM6 C5_VM6) 1) (= VM6Type 4))
    (and (= PriceProv6 1600)
         (= ProcProv6 16)
         (= MemProv6 122000)
         (= StorageProv6 1000))))
(assert (=> (and (>= (+ 0 C1_VM7 C2_VM7 C3_VM7 C4_VM7 C5_VM7) 1) (= VM7Type 4))
    (and (= PriceProv7 1600)
         (= ProcProv7 16)
         (= MemProv7 122000)
         (= StorageProv7 1000))))
(assert (=> (and (>= (+ 0 C1_VM8 C2_VM8 C3_VM8 C4_VM8 C5_VM8) 1) (= VM8Type 4))
    (and (= PriceProv8 1600)
         (= ProcProv8 16)
         (= MemProv8 122000)
         (= StorageProv8 1000))))
(assert (=> (and (>= (+ 0 C1_VM9 C2_VM9 C3_VM9 C4_VM9 C5_VM9) 1) (= VM9Type 4))
    (and (= PriceProv9 1600)
         (= ProcProv9 16)
         (= MemProv9 122000)
         (= StorageProv9 1000))))
(assert (=> (and (>= (+ 0 C1_VM10 C2_VM10 C3_VM10 C4_VM10 C5_VM10) 1) (= VM10Type 4))
    (and (= PriceProv10 1600)
         (= ProcProv10 16)
         (= MemProv10 122000)
         (= StorageProv10 1000))))
(assert (=> (and (>= (+ 0 C1_VM11 C2_VM11 C3_VM11 C4_VM11 C5_VM11) 1) (= VM11Type 4))
    (and (= PriceProv11 1600)
         (= ProcProv11 16)
         (= MemProv11 122000)
         (= StorageProv11 1000))))
(assert (=> (and (>= (+ 0 C1_VM12 C2_VM12 C3_VM12 C4_VM12 C5_VM12) 1) (= VM12Type 4))
    (and (= PriceProv12 1600)
         (= ProcProv12 16)
         (= MemProv12 122000)
         (= StorageProv12 1000))))
(assert (=> (and (>= (+ 0 C1_VM13 C2_VM13 C3_VM13 C4_VM13 C5_VM13) 1) (= VM13Type 4))
    (and (= PriceProv13 1600)
         (= ProcProv13 16)
         (= MemProv13 122000)
         (= StorageProv13 1000))))
(assert (>= (+ 0
       C1_VM1
       C1_VM2
       C1_VM3
       C1_VM4
       C1_VM5
       C1_VM6
       C1_VM7
       C1_VM8
       C1_VM9
       C1_VM10
       C1_VM11
       C1_VM12
       C1_VM13)
    6))
(assert (>= (+ 0
       C2_VM1
       C2_VM2
       C2_VM3
       C2_VM4
       C2_VM5
       C2_VM6
       C2_VM7
       C2_VM8
       C2_VM9
       C2_VM10
       C2_VM11
       C2_VM12
       C2_VM13)
    2))
(assert (>= (+ 0
       C5_VM1
       C5_VM2
       C5_VM3
       C5_VM4
       C5_VM5
       C5_VM6
       C5_VM7
       C5_VM8
       C5_VM9
       C5_VM10
       C5_VM11
       C5_VM12
       C5_VM13)
    2))
(assert (<= (* 7
       (+ 0
          C3_VM1
          C3_VM2
          C3_VM3
          C3_VM4
          C3_VM5
          C3_VM6
          C3_VM7
          C3_VM8
          C3_VM9
          C3_VM10
          C3_VM11
          C3_VM12
          C3_VM13))
    (* 1
       (+ 0
          C1_VM1
          C1_VM2
          C1_VM3
          C1_VM4
          C1_VM5
          C1_VM6
          C1_VM7
          C1_VM8
          C1_VM9
          C1_VM10
          C1_VM11
          C1_VM12
          C1_VM13))))
(assert (<= (+ 0
       C3_VM1
       C3_VM2
       C3_VM3
       C3_VM4
       C3_VM5
       C3_VM6
       C3_VM7
       C3_VM8
       C3_VM9
       C3_VM10
       C3_VM11
       C3_VM12
       C3_VM13)
    1))
(assert (<= (* 3
       (+ 0
          C4_VM1
          C4_VM2
          C4_VM3
          C4_VM4
          C4_VM5
          C4_VM6
          C4_VM7
          C4_VM8
          C4_VM9
          C4_VM10
          C4_VM11
          C4_VM12
          C4_VM13))
    (* 1
       (+ 0
          C1_VM1
          C1_VM2
          C1_VM3
          C1_VM4
          C1_VM5
          C1_VM6
          C1_VM7
          C1_VM8
          C1_VM9
          C1_VM10
          C1_VM11
          C1_VM12
          C1_VM13))))
(assert (<= (* 2
       (+ 0
          C1_VM1
          C1_VM2
          C1_VM3
          C1_VM4
          C1_VM5
          C1_VM6
          C1_VM7
          C1_VM8
          C1_VM9
          C1_VM10
          C1_VM11
          C1_VM12
          C1_VM13))
    (* 3
       (+ 0
          C2_VM1
          C2_VM2
          C2_VM3
          C2_VM4
          C2_VM5
          C2_VM6
          C2_VM7
          C2_VM8
          C2_VM9
          C2_VM10
          C2_VM11
          C2_VM12
          C2_VM13))))
(assert (let ((a!1 (+ 0
              C4_VM1
              C4_VM2
              C4_VM3
              C4_VM4
              C4_VM5
              C4_VM6
              C4_VM7
              C4_VM8
              C4_VM9
              C4_VM10
              C4_VM11
              C4_VM12
              C4_VM13)))
  (or (= a!1 0) (>= a!1 1))))
(assert (let ((a!1 (+ 0
              C3_VM1
              C3_VM2
              C3_VM3
              C3_VM4
              C3_VM5
              C3_VM6
              C3_VM7
              C3_VM8
              C3_VM9
              C3_VM10
              C3_VM11
              C3_VM12
              C3_VM13)))
  (or (= a!1 0) (>= a!1 1))))
(assert (>= (+ 0
       C4_VM1
       C4_VM2
       C4_VM3
       C4_VM4
       C4_VM5
       C4_VM6
       C4_VM7
       C4_VM8
       C4_VM9
       C4_VM10
       C4_VM11
       C4_VM12
       C4_VM13
       0
       C3_VM1
       C3_VM2
       C3_VM3
       C3_VM4
       C3_VM5
       C3_VM6
       C3_VM7
       C3_VM8
       C3_VM9
       C3_VM10
       C3_VM11
       C3_VM12
       C3_VM13)
    1))
(assert (let ((a!1 (+ 0
              C5_VM1
              C5_VM2
              C5_VM3
              C5_VM4
              C5_VM5
              C5_VM6
              C5_VM7
              C5_VM8
              C5_VM9
              C5_VM10
              C5_VM11
              C5_VM12
              C5_VM13)))
  (or (= a!1 0) (>= a!1 1))))
(assert (let ((a!1 (+ 0
              C3_VM1
              C3_VM2
              C3_VM3
              C3_VM4
              C3_VM5
              C3_VM6
              C3_VM7
              C3_VM8
              C3_VM9
              C3_VM10
              C3_VM11
              C3_VM12
              C3_VM13)))
  (or (= a!1 0) (>= a!1 1))))
(assert (>= (+ 0
       C5_VM1
       C5_VM2
       C5_VM3
       C5_VM4
       C5_VM5
       C5_VM6
       C5_VM7
       C5_VM8
       C5_VM9
       C5_VM10
       C5_VM11
       C5_VM12
       C5_VM13
       0
       C3_VM1
       C3_VM2
       C3_VM3
       C3_VM4
       C3_VM5
       C3_VM6
       C3_VM7
       C3_VM8
       C3_VM9
       C3_VM10
       C3_VM11
       C3_VM12
       C3_VM13)
    1))
(assert (<= (+ 0 C3_VM1 C1_VM1) 1))
(assert (<= (+ 0 C3_VM1 C2_VM1) 1))
(assert (<= (+ 0 C3_VM1 C5_VM1) 1))
(assert (<= (+ 0 C3_VM2 C1_VM2) 1))
(assert (<= (+ 0 C3_VM2 C2_VM2) 1))
(assert (<= (+ 0 C3_VM2 C5_VM2) 1))
(assert (<= (+ 0 C3_VM3 C1_VM3) 1))
(assert (<= (+ 0 C3_VM3 C2_VM3) 1))
(assert (<= (+ 0 C3_VM3 C5_VM3) 1))
(assert (<= (+ 0 C3_VM4 C1_VM4) 1))
(assert (<= (+ 0 C3_VM4 C2_VM4) 1))
(assert (<= (+ 0 C3_VM4 C5_VM4) 1))
(assert (<= (+ 0 C3_VM5 C1_VM5) 1))
(assert (<= (+ 0 C3_VM5 C2_VM5) 1))
(assert (<= (+ 0 C3_VM5 C5_VM5) 1))
(assert (<= (+ 0 C3_VM6 C1_VM6) 1))
(assert (<= (+ 0 C3_VM6 C2_VM6) 1))
(assert (<= (+ 0 C3_VM6 C5_VM6) 1))
(assert (<= (+ 0 C3_VM7 C1_VM7) 1))
(assert (<= (+ 0 C3_VM7 C2_VM7) 1))
(assert (<= (+ 0 C3_VM7 C5_VM7) 1))
(assert (<= (+ 0 C3_VM8 C1_VM8) 1))
(assert (<= (+ 0 C3_VM8 C2_VM8) 1))
(assert (<= (+ 0 C3_VM8 C5_VM8) 1))
(assert (<= (+ 0 C3_VM9 C1_VM9) 1))
(assert (<= (+ 0 C3_VM9 C2_VM9) 1))
(assert (<= (+ 0 C3_VM9 C5_VM9) 1))
(assert (<= (+ 0 C3_VM10 C1_VM10) 1))
(assert (<= (+ 0 C3_VM10 C2_VM10) 1))
(assert (<= (+ 0 C3_VM10 C5_VM10) 1))
(assert (<= (+ 0 C3_VM11 C1_VM11) 1))
(assert (<= (+ 0 C3_VM11 C2_VM11) 1))
(assert (<= (+ 0 C3_VM11 C5_VM11) 1))
(assert (<= (+ 0 C3_VM12 C1_VM12) 1))
(assert (<= (+ 0 C3_VM12 C2_VM12) 1))
(assert (<= (+ 0 C3_VM12 C5_VM12) 1))
(assert (<= (+ 0 C3_VM13 C1_VM13) 1))
(assert (<= (+ 0 C3_VM13 C2_VM13) 1))
(assert (<= (+ 0 C3_VM13 C5_VM13) 1))
(assert (<= (+ 0 C4_VM1 C1_VM1) 1))
(assert (<= (+ 0 C4_VM1 C2_VM1) 1))
(assert (<= (+ 0 C4_VM1 C5_VM1) 1))
(assert (<= (+ 0 C4_VM2 C1_VM2) 1))
(assert (<= (+ 0 C4_VM2 C2_VM2) 1))
(assert (<= (+ 0 C4_VM2 C5_VM2) 1))
(assert (<= (+ 0 C4_VM3 C1_VM3) 1))
(assert (<= (+ 0 C4_VM3 C2_VM3) 1))
(assert (<= (+ 0 C4_VM3 C5_VM3) 1))
(assert (<= (+ 0 C4_VM4 C1_VM4) 1))
(assert (<= (+ 0 C4_VM4 C2_VM4) 1))
(assert (<= (+ 0 C4_VM4 C5_VM4) 1))
(assert (<= (+ 0 C4_VM5 C1_VM5) 1))
(assert (<= (+ 0 C4_VM5 C2_VM5) 1))
(assert (<= (+ 0 C4_VM5 C5_VM5) 1))
(assert (<= (+ 0 C4_VM6 C1_VM6) 1))
(assert (<= (+ 0 C4_VM6 C2_VM6) 1))
(assert (<= (+ 0 C4_VM6 C5_VM6) 1))
(assert (<= (+ 0 C4_VM7 C1_VM7) 1))
(assert (<= (+ 0 C4_VM7 C2_VM7) 1))
(assert (<= (+ 0 C4_VM7 C5_VM7) 1))
(assert (<= (+ 0 C4_VM8 C1_VM8) 1))
(assert (<= (+ 0 C4_VM8 C2_VM8) 1))
(assert (<= (+ 0 C4_VM8 C5_VM8) 1))
(assert (<= (+ 0 C4_VM9 C1_VM9) 1))
(assert (<= (+ 0 C4_VM9 C2_VM9) 1))
(assert (<= (+ 0 C4_VM9 C5_VM9) 1))
(assert (<= (+ 0 C4_VM10 C1_VM10) 1))
(assert (<= (+ 0 C4_VM10 C2_VM10) 1))
(assert (<= (+ 0 C4_VM10 C5_VM10) 1))
(assert (<= (+ 0 C4_VM11 C1_VM11) 1))
(assert (<= (+ 0 C4_VM11 C2_VM11) 1))
(assert (<= (+ 0 C4_VM11 C5_VM11) 1))
(assert (<= (+ 0 C4_VM12 C1_VM12) 1))
(assert (<= (+ 0 C4_VM12 C2_VM12) 1))
(assert (<= (+ 0 C4_VM12 C5_VM12) 1))
(assert (<= (+ 0 C4_VM13 C1_VM13) 1))
(assert (<= (+ 0 C4_VM13 C2_VM13) 1))
(assert (<= (+ 0 C4_VM13 C5_VM13) 1))
(assert (<= (+ 0 C5_VM1 C2_VM1) 1))
(assert (<= (+ 0 C5_VM1 C3_VM1) 1))
(assert (<= (+ 0 C5_VM1 C4_VM1) 1))
(assert (<= (+ 0 C5_VM2 C2_VM2) 1))
(assert (<= (+ 0 C5_VM2 C3_VM2) 1))
(assert (<= (+ 0 C5_VM2 C4_VM2) 1))
(assert (<= (+ 0 C5_VM3 C2_VM3) 1))
(assert (<= (+ 0 C5_VM3 C3_VM3) 1))
(assert (<= (+ 0 C5_VM3 C4_VM3) 1))
(assert (<= (+ 0 C5_VM4 C2_VM4) 1))
(assert (<= (+ 0 C5_VM4 C3_VM4) 1))
(assert (<= (+ 0 C5_VM4 C4_VM4) 1))
(assert (<= (+ 0 C5_VM5 C2_VM5) 1))
(assert (<= (+ 0 C5_VM5 C3_VM5) 1))
(assert (<= (+ 0 C5_VM5 C4_VM5) 1))
(assert (<= (+ 0 C5_VM6 C2_VM6) 1))
(assert (<= (+ 0 C5_VM6 C3_VM6) 1))
(assert (<= (+ 0 C5_VM6 C4_VM6) 1))
(assert (<= (+ 0 C5_VM7 C2_VM7) 1))
(assert (<= (+ 0 C5_VM7 C3_VM7) 1))
(assert (<= (+ 0 C5_VM7 C4_VM7) 1))
(assert (<= (+ 0 C5_VM8 C2_VM8) 1))
(assert (<= (+ 0 C5_VM8 C3_VM8) 1))
(assert (<= (+ 0 C5_VM8 C4_VM8) 1))
(assert (<= (+ 0 C5_VM9 C2_VM9) 1))
(assert (<= (+ 0 C5_VM9 C3_VM9) 1))
(assert (<= (+ 0 C5_VM9 C4_VM9) 1))
(assert (<= (+ 0 C5_VM10 C2_VM10) 1))
(assert (<= (+ 0 C5_VM10 C3_VM10) 1))
(assert (<= (+ 0 C5_VM10 C4_VM10) 1))
(assert (<= (+ 0 C5_VM11 C2_VM11) 1))
(assert (<= (+ 0 C5_VM11 C3_VM11) 1))
(assert (<= (+ 0 C5_VM11 C4_VM11) 1))
(assert (<= (+ 0 C5_VM12 C2_VM12) 1))
(assert (<= (+ 0 C5_VM12 C3_VM12) 1))
(assert (<= (+ 0 C5_VM12 C4_VM12) 1))
(assert (<= (+ 0 C5_VM13 C2_VM13) 1))
(assert (<= (+ 0 C5_VM13 C3_VM13) 1))
(assert (<= (+ 0 C5_VM13 C4_VM13) 1))
(assert (>= (+ 0
       C1_VM1
       C1_VM2
       C1_VM3
       C1_VM4
       C1_VM5
       C1_VM6
       C1_VM7
       C1_VM8
       C1_VM9
       C1_VM10
       C1_VM11
       C1_VM12
       C1_VM13)
    1))
(assert (>= (+ 0
       C2_VM1
       C2_VM2
       C2_VM3
       C2_VM4
       C2_VM5
       C2_VM6
       C2_VM7
       C2_VM8
       C2_VM9
       C2_VM10
       C2_VM11
       C2_VM12
       C2_VM13)
    1))
(assert (<= (+ 0 (* C1_VM1 2) (* C2_VM1 2) (* C3_VM1 4) (* C4_VM1 4) (* C5_VM1 4))
    ProcProv1))
(assert (<= (+ 0 (* C1_VM2 2) (* C2_VM2 2) (* C3_VM2 4) (* C4_VM2 4) (* C5_VM2 4))
    ProcProv2))
(assert (<= (+ 0 (* C1_VM3 2) (* C2_VM3 2) (* C3_VM3 4) (* C4_VM3 4) (* C5_VM3 4))
    ProcProv3))
(assert (<= (+ 0 (* C1_VM4 2) (* C2_VM4 2) (* C3_VM4 4) (* C4_VM4 4) (* C5_VM4 4))
    ProcProv4))
(assert (<= (+ 0 (* C1_VM5 2) (* C2_VM5 2) (* C3_VM5 4) (* C4_VM5 4) (* C5_VM5 4))
    ProcProv5))
(assert (<= (+ 0 (* C1_VM6 2) (* C2_VM6 2) (* C3_VM6 4) (* C4_VM6 4) (* C5_VM6 4))
    ProcProv6))
(assert (<= (+ 0 (* C1_VM7 2) (* C2_VM7 2) (* C3_VM7 4) (* C4_VM7 4) (* C5_VM7 4))
    ProcProv7))
(assert (<= (+ 0 (* C1_VM8 2) (* C2_VM8 2) (* C3_VM8 4) (* C4_VM8 4) (* C5_VM8 4))
    ProcProv8))
(assert (<= (+ 0 (* C1_VM9 2) (* C2_VM9 2) (* C3_VM9 4) (* C4_VM9 4) (* C5_VM9 4))
    ProcProv9))
(assert (<= (+ 0 (* C1_VM10 2) (* C2_VM10 2) (* C3_VM10 4) (* C4_VM10 4) (* C5_VM10 4))
    ProcProv10))
(assert (<= (+ 0 (* C1_VM11 2) (* C2_VM11 2) (* C3_VM11 4) (* C4_VM11 4) (* C5_VM11 4))
    ProcProv11))
(assert (<= (+ 0 (* C1_VM12 2) (* C2_VM12 2) (* C3_VM12 4) (* C4_VM12 4) (* C5_VM12 4))
    ProcProv12))
(assert (<= (+ 0 (* C1_VM13 2) (* C2_VM13 2) (* C3_VM13 4) (* C4_VM13 4) (* C5_VM13 4))
    ProcProv13))
(assert (<= (+ 0
       (* C1_VM1 512)
       (* C2_VM1 512)
       (* C3_VM1 2048)
       (* C4_VM1 2048)
       (* C5_VM1 4000))
    MemProv1))
(assert (<= (+ 0
       (* C1_VM2 512)
       (* C2_VM2 512)
       (* C3_VM2 2048)
       (* C4_VM2 2048)
       (* C5_VM2 4000))
    MemProv2))
(assert (<= (+ 0
       (* C1_VM3 512)
       (* C2_VM3 512)
       (* C3_VM3 2048)
       (* C4_VM3 2048)
       (* C5_VM3 4000))
    MemProv3))
(assert (<= (+ 0
       (* C1_VM4 512)
       (* C2_VM4 512)
       (* C3_VM4 2048)
       (* C4_VM4 2048)
       (* C5_VM4 4000))
    MemProv4))
(assert (<= (+ 0
       (* C1_VM5 512)
       (* C2_VM5 512)
       (* C3_VM5 2048)
       (* C4_VM5 2048)
       (* C5_VM5 4000))
    MemProv5))
(assert (<= (+ 0
       (* C1_VM6 512)
       (* C2_VM6 512)
       (* C3_VM6 2048)
       (* C4_VM6 2048)
       (* C5_VM6 4000))
    MemProv6))
(assert (<= (+ 0
       (* C1_VM7 512)
       (* C2_VM7 512)
       (* C3_VM7 2048)
       (* C4_VM7 2048)
       (* C5_VM7 4000))
    MemProv7))
(assert (<= (+ 0
       (* C1_VM8 512)
       (* C2_VM8 512)
       (* C3_VM8 2048)
       (* C4_VM8 2048)
       (* C5_VM8 4000))
    MemProv8))
(assert (<= (+ 0
       (* C1_VM9 512)
       (* C2_VM9 512)
       (* C3_VM9 2048)
       (* C4_VM9 2048)
       (* C5_VM9 4000))
    MemProv9))
(assert (<= (+ 0
       (* C1_VM10 512)
       (* C2_VM10 512)
       (* C3_VM10 2048)
       (* C4_VM10 2048)
       (* C5_VM10 4000))
    MemProv10))
(assert (<= (+ 0
       (* C1_VM11 512)
       (* C2_VM11 512)
       (* C3_VM11 2048)
       (* C4_VM11 2048)
       (* C5_VM11 4000))
    MemProv11))
(assert (<= (+ 0
       (* C1_VM12 512)
       (* C2_VM12 512)
       (* C3_VM12 2048)
       (* C4_VM12 2048)
       (* C5_VM12 4000))
    MemProv12))
(assert (<= (+ 0
       (* C1_VM13 512)
       (* C2_VM13 512)
       (* C3_VM13 2048)
       (* C4_VM13 2048)
       (* C5_VM13 4000))
    MemProv13))
(assert (<= (+ 0
       (* C1_VM1 1000)
       (* C2_VM1 2000)
       (* C3_VM1 500)
       (* C4_VM1 500)
       (* C5_VM1 500))
    StorageProv1))
(assert (<= (+ 0
       (* C1_VM2 1000)
       (* C2_VM2 2000)
       (* C3_VM2 500)
       (* C4_VM2 500)
       (* C5_VM2 500))
    StorageProv2))
(assert (<= (+ 0
       (* C1_VM3 1000)
       (* C2_VM3 2000)
       (* C3_VM3 500)
       (* C4_VM3 500)
       (* C5_VM3 500))
    StorageProv3))
(assert (<= (+ 0
       (* C1_VM4 1000)
       (* C2_VM4 2000)
       (* C3_VM4 500)
       (* C4_VM4 500)
       (* C5_VM4 500))
    StorageProv4))
(assert (<= (+ 0
       (* C1_VM5 1000)
       (* C2_VM5 2000)
       (* C3_VM5 500)
       (* C4_VM5 500)
       (* C5_VM5 500))
    StorageProv5))
(assert (<= (+ 0
       (* C1_VM6 1000)
       (* C2_VM6 2000)
       (* C3_VM6 500)
       (* C4_VM6 500)
       (* C5_VM6 500))
    StorageProv6))
(assert (<= (+ 0
       (* C1_VM7 1000)
       (* C2_VM7 2000)
       (* C3_VM7 500)
       (* C4_VM7 500)
       (* C5_VM7 500))
    StorageProv7))
(assert (<= (+ 0
       (* C1_VM8 1000)
       (* C2_VM8 2000)
       (* C3_VM8 500)
       (* C4_VM8 500)
       (* C5_VM8 500))
    StorageProv8))
(assert (<= (+ 0
       (* C1_VM9 1000)
       (* C2_VM9 2000)
       (* C3_VM9 500)
       (* C4_VM9 500)
       (* C5_VM9 500))
    StorageProv9))
(assert (<= (+ 0
       (* C1_VM10 1000)
       (* C2_VM10 2000)
       (* C3_VM10 500)
       (* C4_VM10 500)
       (* C5_VM10 500))
    StorageProv10))
(assert (<= (+ 0
       (* C1_VM11 1000)
       (* C2_VM11 2000)
       (* C3_VM11 500)
       (* C4_VM11 500)
       (* C5_VM11 500))
    StorageProv11))
(assert (<= (+ 0
       (* C1_VM12 1000)
       (* C2_VM12 2000)
       (* C3_VM12 500)
       (* C4_VM12 500)
       (* C5_VM12 500))
    StorageProv12))
(assert (<= (+ 0
       (* C1_VM13 1000)
       (* C2_VM13 2000)
       (* C3_VM13 500)
       (* C4_VM13 500)
       (* C5_VM13 500))
    StorageProv13))
(minimize (+ 0
   PriceProv1
   PriceProv2
   PriceProv3
   PriceProv4
   PriceProv5
   PriceProv6
   PriceProv7
   PriceProv8
   PriceProv9
   PriceProv10
   PriceProv11
   PriceProv12
   PriceProv13))
(check-sat)
